#######################################
### Exact MIP solver for the HHCRSP ###
#######################################
-- Instance file: new-instances/HHCRSP_50_10_49_1.0_R_C.txt
-- Max threads: 4
-- Time limit: 999999 seconds
-- Use initial solution: No
Trivial flow violations prevented generating 6575 variables.
Model exported.
Version identifier: 20.1.0.0 | 2020-11-10 | 9bedb6d68
CPXPARAM_Threads                                 4
CPXPARAM_TimeLimit                               999999
Parallel mode: deterministic, using up to 4 threads for concurrent optimization:
 * Starting dual Simplex on 1 thread...
 * Starting Barrier on 3 threads...
Tried aggregator 1 time.
LP Presolve eliminated 1356 rows and 221 columns.
Reduced LP has 6136 rows, 5899 columns, and 51760 nonzeros.
Presolve time = 0.03 sec. (15.03 ticks)
Symmetry aggregator did 3741 additional substitutions.

Iteration log . . .
Iteration:     1   Dual objective     =             0.000000
Iteration:   216   Dual objective     =            93.666587

Dual crossover.
  Dual:  Fixing 108 variables.
      107 DMoves:  Infeasibility  1.43219016e-14  Objective  9.36849067e+01
        0 DMoves:  Infeasibility  6.66135848e-15  Objective  9.36849067e+01
  Dual:  Pushed 4, exchanged 104.
  Primal:  Fixing 19 variables.
       18 PMoves:  Infeasibility  0.00000000e+00  Objective  9.36849067e+01
        0 PMoves:  Infeasibility  0.00000000e+00  Objective  9.36849067e+01
  Primal:  Pushed 2, exchanged 17.

Dual simplex solved model.


Solution status from MIP model:
-- Processing time: 0.061 sec.
-- Memory used: 72.3018 MB
-- Best bound: inf
-- Obj value: 93.6849
-- Gap: inf%
-- Total distance: 281.055
-- Total tardiness: 0
-- Largest tardiness: 0
